
Gurobi 9.5.0 (linux64) logging started Wed Oct 11 14:25:11 2023

Set parameter LogFile to value "/lustre1/scratch/348/vsc34888/JointResearch/05.Models/06.Benchmarking/A.The_full_year_MILP/9n/openStarNet_9n.log"
Set parameter Method to value 2
Set parameter MIPFocus to value 1
Set parameter Presolve to value 2
Set parameter RINS to value 100
Set parameter MIPGap to value 0.01
Set parameter Threads to value 36
Set parameter TimeLimit to value 604800
Set parameter IterationLimit to value 760000000
Gurobi Optimizer version 9.5.0 build v9.5.0rc5 (linux64)
Thread count: 36 physical cores, 36 logical processors, using up to 36 threads
Optimize a model with 2367459 rows, 1236487 columns and 7225306 nonzeros
Model fingerprint: 0xafe9566a
Variable types: 1236451 continuous, 36 integer (36 binary)
Coefficient statistics:
  Matrix range     [1e-04, 2e+03]
  Objective range  [1e+00, 1e+00]
  Bounds range     [4e-04, 2e+00]
  RHS range        [4e-04, 1e+00]
Presolve removed 821187 rows and 401860 columns (presolve time = 5s) ...
Presolve removed 821187 rows and 401860 columns (presolve time = 10s) ...
Presolve removed 821187 rows and 401860 columns (presolve time = 15s) ...
Presolve removed 821187 rows and 401860 columns
Presolve time: 16.07s
Presolved: 1546272 rows, 834627 columns, 5473407 nonzeros
Variable types: 834591 continuous, 36 integer (36 binary)
Root relaxation presolved: 1546272 rows, 834627 columns, 5473407 nonzeros

Root barrier log...

Ordering time: 0.51s

Barrier statistics:
 Dense cols : 36
 AA' NZ     : 2.081e+07
 Factor NZ  : 4.702e+07 (roughly 1.3 GB of memory)
 Factor Ops : 2.386e+09 (less than 1 second per iteration)
 Threads    : 35

                  Objective                Residual
Iter       Primal          Dual         Primal    Dual     Compl     Time
   0   3.92215575e+05 -1.99808944e+07  6.62e+00 5.96e-01  2.05e+01    33s
   1   6.05493976e+04 -5.88934812e+06  7.75e-01 1.03e-08  2.74e+00    34s
   2   1.34101516e+04 -9.30063324e+05  9.43e-03 2.83e-09  3.14e-01    35s
   3   3.19655330e+03 -2.20148629e+04  1.05e-05 6.93e-11  8.32e-03    36s
   4   9.14947752e+02 -3.52861701e+03  6.50e-09 1.14e-11  1.47e-03    37s
   5   6.30187843e+02 -1.63900864e+03  2.96e-09 4.87e-12  7.48e-04    38s
   6   4.41657096e+02 -9.67189689e+02  1.64e-09 3.10e-12  4.65e-04    39s
   7   3.00148592e+02 -5.09644363e+02  8.46e-10 1.50e-12  2.67e-04    39s
   8   1.67455167e+02 -1.94713935e+02  2.52e-10 1.03e-12  1.19e-04    41s
   9   1.44598981e+02 -4.77788720e+01  1.77e-10 4.55e-13  6.35e-05    41s
  10   1.35974879e+02 -2.30924797e+01  1.51e-10 6.82e-13  5.25e-05    42s
  11   1.15526645e+02  3.98546784e+00  8.68e-11 6.47e-13  3.68e-05    44s
  12   1.03012526e+02  2.11038679e+01  5.23e-11 4.41e-13  2.70e-05    45s
  13   9.84211079e+01  3.87187067e+01  4.06e-11 7.96e-13  1.97e-05    46s
  14   9.64751418e+01  4.07349783e+01  3.22e-11 5.90e-13  1.84e-05    47s
  15   9.56153496e+01  4.33557606e+01  3.00e-11 3.84e-13  1.72e-05    48s
  16   9.39818310e+01  4.67913124e+01  7.56e-11 4.41e-13  1.56e-05    49s
  17   9.20921644e+01  5.22424651e+01  6.13e-11 5.19e-13  1.31e-05    51s
  18   9.10441559e+01  5.47579539e+01  5.20e-11 7.18e-13  1.20e-05    52s
  19   9.02087382e+01  5.75408561e+01  4.47e-11 4.33e-13  1.08e-05    53s
  20   8.98117358e+01  6.25553942e+01  4.09e-11 7.60e-13  8.99e-06    54s
  21   8.89160066e+01  6.43971386e+01  3.31e-11 4.05e-13  8.09e-06    55s
  22   8.83501091e+01  6.57458390e+01  2.82e-11 4.33e-13  7.46e-06    57s
  23   8.79264570e+01  6.93517940e+01  3.55e-11 9.09e-13  6.13e-06    58s
  24   8.75777324e+01  7.17598648e+01  3.77e-11 7.60e-13  5.22e-06    59s
  25   8.71479128e+01  7.27735802e+01  2.50e-11 5.76e-13  4.74e-06    60s
  26   8.68809503e+01  7.35063100e+01  6.86e-11 3.62e-13  4.41e-06    61s
  27   8.66991129e+01  7.43710328e+01  5.07e-11 5.40e-13  4.07e-06    62s
  28   8.65851091e+01  7.48133526e+01  4.57e-11 5.47e-13  3.88e-06    64s
  29   8.64664867e+01  7.54992061e+01  4.43e-11 4.33e-13  3.62e-06    65s
  30   8.61993543e+01  7.68905641e+01  4.58e-11 5.76e-13  3.07e-06    66s
  31   8.60223962e+01  7.76863948e+01  1.08e-10 4.01e-13  2.75e-06    67s
  32   8.59220898e+01  7.81696769e+01  1.19e-10 4.62e-13  2.56e-06    69s
  33   8.58067710e+01  7.89291810e+01  1.18e-10 5.68e-13  2.27e-06    70s
  34   8.57207047e+01  7.92484062e+01  1.08e-10 6.75e-13  2.13e-06    71s
  35   8.56384090e+01  7.96220014e+01  1.30e-10 5.12e-13  1.98e-06    72s
  36   8.55720569e+01  8.00399278e+01  1.21e-10 4.33e-13  1.82e-06    73s
  37   8.54831728e+01  8.04453056e+01  9.79e-11 5.58e-13  1.66e-06    74s
  38   8.54488878e+01  8.08477687e+01  9.49e-11 7.18e-13  1.52e-06    76s
  39   8.54125016e+01  8.10482823e+01  8.47e-11 5.26e-13  1.44e-06    77s
  40   8.53506728e+01  8.14722638e+01  6.33e-11 6.82e-13  1.28e-06    78s
  41   8.53382723e+01  8.15872251e+01  9.06e-11 1.05e-12  1.24e-06    79s
  42   8.52927153e+01  8.21483833e+01  1.13e-10 9.45e-13  1.04e-06    80s
  43   8.52516166e+01  8.24714609e+01  1.00e-10 4.48e-13  9.17e-07    81s
  44   8.52024788e+01  8.26085144e+01  1.30e-10 4.48e-13  8.56e-07    82s
  45   8.51771063e+01  8.33221719e+01  1.22e-10 7.18e-13  6.12e-07    83s
  46   8.51340606e+01  8.34477831e+01  9.91e-11 9.20e-13  5.56e-07    85s
  47   8.51298630e+01  8.34994312e+01  1.22e-09 1.67e-12  5.38e-07    86s
  48   8.51078527e+01  8.39798158e+01  1.13e-08 1.79e-12  3.72e-07    87s
  49   8.50583828e+01  8.42291488e+01  8.41e-09 4.79e-12  2.74e-07    88s
  50   8.50445887e+01  8.42577267e+01  8.22e-09 4.77e-12  2.60e-07    90s
  51   8.50340507e+01  8.43536409e+01  7.94e-09 3.44e-12  2.24e-07    91s
  52   8.50222407e+01  8.44725131e+01  7.65e-09 3.67e-12  1.81e-07    93s
  53   8.50118712e+01  8.45439363e+01  7.26e-09 2.56e-12  1.54e-07    94s
  54   8.49921899e+01  8.46586792e+01  6.28e-09 1.61e-12  1.10e-07    96s
  55   8.49909574e+01  8.46642754e+01  6.12e-09 2.33e-12  1.08e-07    97s
  56   8.49880993e+01  8.46767941e+01  5.74e-09 2.48e-12  1.03e-07    98s
  57   8.49806187e+01  8.47773665e+01  4.59e-09 1.17e-11  6.70e-08   100s
  58   8.49750533e+01  8.47873535e+01  3.92e-09 1.07e-11  6.19e-08   101s
  59   8.49691121e+01  8.48405419e+01  3.31e-09 7.08e-12  4.24e-08   103s
  60   8.49545553e+01  8.48634802e+01  1.51e-09 5.88e-12  3.00e-08   105s
  61   8.49525816e+01  8.48894136e+01  1.12e-09 3.93e-12  2.08e-08   106s
  62   8.49493077e+01  8.49288716e+01  7.68e-10 4.14e-12  6.74e-09   108s
  63   8.49487852e+01  8.49300071e+01  7.11e-10 4.21e-12  6.19e-09   110s
  64   8.49471751e+01  8.49315785e+01  5.35e-10 3.06e-12  5.14e-09   111s
  65   8.49468545e+01  8.49394765e+01  4.82e-10 6.76e-11  2.43e-09   112s
  66   8.49431452e+01  8.49420458e+01  8.52e-11 2.61e-12  3.63e-10   113s
  67   8.49423689e+01  8.49422732e+01  3.10e-10 6.96e-13  3.16e-11   114s
  68   8.49422918e+01  8.49422917e+01  8.82e-11 2.17e-11  9.87e-15   115s

Barrier solved model in 68 iterations and 114.84 seconds (81.27 work units)
Optimal objective 8.49422918e+01


Root crossover log...

  364167 DPushes remaining with DInf 0.0000000e+00               116s
       0 DPushes remaining with DInf 0.0000000e+00               117s

   61583 PPushes remaining with PInf 0.0000000e+00               117s
       0 PPushes remaining with PInf 0.0000000e+00               121s

  Push phase complete: Pinf 0.0000000e+00, Dinf 1.9568421e-12    121s


Root simplex log...

Iteration    Objective       Primal Inf.    Dual Inf.      Time
   70035    8.4942292e+01   0.000000e+00   0.000000e+00    122s
   70035    8.4942292e+01   0.000000e+00   0.000000e+00    123s

Root relaxation: objective 8.494229e+01, 70035 iterations, 98.53 seconds (72.92 work units)

    Nodes    |    Current Node    |     Objective Bounds      |     Work
 Expl Unexpl |  Obj  Depth IntInf | Incumbent    BestBd   Gap | It/Node Time

     0     0   84.94229    0    6          -   84.94229      -     -  124s
H    0     0                     915.9985689   84.94229  90.7%     -  135s
     0     0   92.40894    0    1  915.99857   92.40894  89.9%     -  374s
H    0     0                      94.6526624   92.40894  2.37%     -  386s
     0     0   92.65269    0    1   94.65266   92.65269  2.11%     -  413s
     0     0   92.65269    0    1   94.65266   92.65269  2.11%     -  418s
     0     0   93.10136    0    3   94.65266   93.10136  1.64%     -  583s
     0     0   93.10136    0    3   94.65266   93.10136  1.64%     -  602s
     0     0   93.10136    0    1   94.65266   93.10136  1.64%     -  640s
H    0     0                      93.1993808   93.10136  0.11%     -  645s

Cutting planes:
  Gomory: 1
  MIR: 7795
  Relax-and-lift: 31

Explored 1 nodes (298130 simplex iterations) in 645.67 seconds (947.23 work units)
Thread count was 36 (of 36 available processors)

Solution count 4: 93.1994 94.6527 915.999 927.024 

Optimal solution found (tolerance 1.00e-02)
Best objective 9.319938075761e+01, best bound 9.310136018632e+01, gap 0.1052%

Gurobi 9.5.0 (linux64) logging started Wed Oct 11 14:37:09 2023

Set parameter LogFile to value "/lustre1/scratch/348/vsc34888/JointResearch/05.Models/06.Benchmarking/A.The_full_year_MILP/9n/openStarNet_9n.log"
Set parameter Method to value 2
Set parameter MIPFocus to value 1
Set parameter Presolve to value 2
Set parameter RINS to value 100
Set parameter MIPGap to value 0.01
Set parameter Threads to value 36
Set parameter TimeLimit to value 604800
Set parameter IterationLimit to value 760000000
No parameters matching 'relax_integrality' found
Gurobi Optimizer version 9.5.0 build v9.5.0rc5 (linux64)
Thread count: 36 physical cores, 36 logical processors, using up to 36 threads
Optimize a model with 2367459 rows, 1236451 columns and 5967286 nonzeros
Model fingerprint: 0xd680f173
Coefficient statistics:
  Matrix range     [1e-04, 2e+03]
  Objective range  [1e+00, 1e+00]
  Bounds range     [4e-04, 2e+00]
  RHS range        [4e-04, 2e+01]
Presolve removed 2052963 rows and 690148 columns
Presolve time: 2.64s
Presolved: 314496 rows, 546303 columns, 1201503 nonzeros

Ordering time: 0.04s

Barrier statistics:
 AA' NZ     : 8.823e+05
 Factor NZ  : 3.232e+06 (roughly 400 MB of memory)
 Factor Ops : 3.982e+07 (less than 1 second per iteration)
 Threads    : 36

                  Objective                Residual
Iter       Primal          Dual         Primal    Dual     Compl     Time
   0   4.29968675e+05 -5.59501836e+06  4.33e+00 3.55e-15  2.30e+01     3s
   1   6.12321733e+04 -1.14179318e+06  5.09e-01 2.31e-14  2.88e+00     3s
   2   8.97706626e+03 -1.79078929e+05  3.35e-02 2.28e-14  3.33e-01     3s
   3   1.46732876e+03 -3.72588814e+03  1.10e-05 1.85e-14  8.67e-03     4s
   4   6.72160229e+02 -8.49595579e+02  1.11e-08 1.24e-14  2.54e-03     4s
   5   4.42505275e+02 -3.57244495e+02  6.27e-09 1.07e-14  1.34e-03     4s
   6   2.97134230e+02 -1.71153122e+02  3.48e-09 1.07e-14  7.82e-04     4s
   7   2.08276950e+02 -5.82881918e+01  1.89e-09 1.07e-14  4.45e-04     4s
   8   1.55929132e+02  1.02267978e+01  9.90e-10 7.11e-15  2.43e-04     4s
   9   1.17392937e+02  6.29401611e+01  3.57e-10 7.11e-15  9.09e-05     4s
  10   1.04133294e+02  8.04696651e+01  1.55e-10 1.07e-14  3.95e-05     5s
  11   9.59368147e+01  8.83827689e+01  3.65e-11 1.07e-14  1.26e-05     5s
  12   9.39090004e+01  9.24036546e+01  8.47e-12 1.07e-14  2.51e-06     5s
  13   9.34310304e+01  9.29924881e+01  2.93e-11 1.07e-14  7.32e-07     5s
  14   9.32793461e+01  9.31196301e+01  1.23e-10 1.07e-14  2.67e-07     5s
  15   9.32228025e+01  9.31721791e+01  1.57e-10 1.07e-14  8.46e-08     5s
  16   9.32048109e+01  9.31902448e+01  1.83e-10 7.11e-15  2.43e-08     5s
  17   9.32000461e+01  9.31965547e+01  5.35e-10 1.07e-14  5.83e-09     6s
  18   9.31993948e+01  9.31992261e+01  7.23e-10 1.07e-14  2.82e-10     6s
  19   9.31993812e+01  9.31993798e+01  3.61e-10 1.07e-14  2.40e-12     6s
  20   9.31993808e+01  9.31993808e+01  6.80e-11 1.07e-14  2.40e-15     6s

Barrier solved model in 20 iterations and 6.23 seconds (5.79 work units)
Optimal objective 9.31993808e+01

Crossover log...

  103087 DPushes remaining with DInf 0.0000000e+00                 6s
       0 DPushes remaining with DInf 0.0000000e+00                 7s

   11686 PPushes remaining with PInf 0.0000000e+00                 7s
       0 PPushes remaining with PInf 0.0000000e+00                 9s

  Push phase complete: Pinf 0.0000000e+00, Dinf 1.7070620e-13      9s

Iteration    Objective       Primal Inf.    Dual Inf.      Time
   17412    9.3199381e+01   0.000000e+00   0.000000e+00     13s

Solved in 17412 iterations and 13.01 seconds (11.51 work units)
Optimal objective  9.319938076e+01
